NAME : X-n167-k10
COMMENT : "Generated by Uchoa, Pecin, Pessoa, Poggi, Subramanian, and Vidal (2013)"
TYPE : CVRP
DIMENSION : 167
EDGE_WEIGHT_TYPE : EUC_2D
CAPACITY : 133
NODE_COORD_SECTION
1 0 0
2 832 885
3 777 632
4 406 257
5 620 467
6 58 70
7 116 423
8 104 445
9 714 722
10 188 503
11 856 594
12 932 448
13 749 982
14 818 889
15 377 493
16 337 419
17 772 605
18 373 448
19 519 112
20 849 274
21 533 839
22 610 417
23 69 583
24 573 195
25 988 324
26 110 550
27 271 676
28 694 130
29 791 590
30 785 614
31 321 305
32 974 292
33 804 556
34 372 893
35 867 23
36 252 660
37 588 34
38 939 685
39 511 524
40 948 479
41 912 227
42 380 807
43 309 141
44 558 759
45 241 225
46 920 87
47 269 351
48 156 776
49 251 512
50 608 874
51 853 269
52 897 572
53 316 461
54 825 529
55 474 152
56 510 453
57 15 838
58 778 928
59 1 896
60 804 492
61 630 294
62 2 966
63 254 539
64 167 28
65 646 879
66 863 49
67 508 759
68 64 165
69 249 525
70 49 605
71 990 375
72 539 272
73 833 561
74 84 571
75 378 847
76 713 485
77 489 204
78 815 905
79 307 774
80 286 204
81 517 61
82 918 74
83 864 397
84 35 597
85 918 632
86 395 570
87 87 97
88 318 94
89 893 805
90 82 392
91 471 899
92 567 895
93 349 360
94 138 560
95 459 962
96 795 461
97 398 467
98 553 606
99 952 89
100 92 22
101 853 188
102 643 80
103 801 227
104 127 74
105 727 975
106 552 48
107 311 959
108 647 876
109 742 168
110 755 589
111 741 8
112 975 954
113 820 502
114 552 300
115 802 744
116 515 599
117 585 600
118 573 793
119 159 669
120 248 369
121 868 476
122 275 194
123 930 933
124 233 587
125 198 35
126 444 648
127 184 822
128 107 840
129 312 573
130 694 813
131 446 264
132 586 483
133 648 274
134 967 362
135 194 330
136 963 135
137 846 717
138 32 487
139 358 728
140 608 182
141 250 367
142 989 392
143 820 307
144 473 274
145 408 84
146 762 800
147 917 560
148 586 830
149 571 616
150 606 445
151 939 116
152 551 528
153 191 102
154 605 583
155 627 249
156 53 819
157 427 571
158 168 479
159 679 371
160 354 415
161 638 444
162 535 918
163 243 535
164 796 796
165 886 32
166 272 699
167 421 935
PICKUP_AND_DELIVERY_SECTION
1 0 0 1000000000 0 0 0
2 0 0 1000000000 0 0 6
3 0 0 1000000000 0 0 9
4 0 0 1000000000 0 0 7
5 0 0 1000000000 0 5 0
6 0 0 1000000000 0 0 9
7 0 0 1000000000 0 0 5
8 0 0 1000000000 0 0 9
9 0 0 1000000000 0 7 0
10 0 0 1000000000 0 0 10
11 0 0 1000000000 0 0 8
12 0 0 1000000000 0 0 6
13 0 0 1000000000 0 5 0
14 0 0 1000000000 0 0 9
15 0 0 1000000000 0 0 8
16 0 0 1000000000 0 0 9
17 0 0 1000000000 0 10 0
18 0 0 1000000000 0 0 5
19 0 0 1000000000 0 0 7
20 0 0 1000000000 0 0 8
21 0 0 1000000000 0 5 0
22 0 0 1000000000 0 0 9
23 0 0 1000000000 0 0 9
24 0 0 1000000000 0 0 7
25 0 0 1000000000 0 5 0
26 0 0 1000000000 0 0 7
27 0 0 1000000000 0 0 8
28 0 0 1000000000 0 0 5
29 0 0 1000000000 0 10 0
30 0 0 1000000000 0 0 9
31 0 0 1000000000 0 0 9
32 0 0 1000000000 0 0 9
33 0 0 1000000000 0 9 0
34 0 0 1000000000 0 0 7
35 0 0 1000000000 0 0 9
36 0 0 1000000000 0 0 5
37 0 0 1000000000 0 10 0
38 0 0 1000000000 0 0 6
39 0 0 1000000000 0 0 9
40 0 0 1000000000 0 0 9
41 0 0 1000000000 0 5 0
42 0 0 1000000000 0 0 6
43 0 0 1000000000 0 0 10
44 0 0 1000000000 0 0 6
45 0 0 1000000000 0 6 0
46 0 0 1000000000 0 0 8
47 0 0 1000000000 0 0 6
48 0 0 1000000000 0 0 6
49 0 0 1000000000 0 10 0
50 0 0 1000000000 0 0 9
51 0 0 1000000000 0 0 7
52 0 0 1000000000 0 0 8
53 0 0 1000000000 0 6 0
54 0 0 1000000000 0 0 6
55 0 0 1000000000 0 0 6
56 0 0 1000000000 0 0 8
57 0 0 1000000000 0 5 0
58 0 0 1000000000 0 0 10
59 0 0 1000000000 0 0 6
60 0 0 1000000000 0 0 9
61 0 0 1000000000 0 9 0
62 0 0 1000000000 0 0 9
63 0 0 1000000000 0 0 7
64 0 0 1000000000 0 0 9
65 0 0 1000000000 0 6 0
66 0 0 1000000000 0 0 7
67 0 0 1000000000 0 0 5
68 0 0 1000000000 0 0 9
69 0 0 1000000000 0 6 0
70 0 0 1000000000 0 0 5
71 0 0 1000000000 0 0 6
72 0 0 1000000000 0 0 9
73 0 0 1000000000 0 6 0
74 0 0 1000000000 0 0 8
75 0 0 1000000000 0 0 8
76 0 0 1000000000 0 0 5
77 0 0 1000000000 0 7 0
78 0 0 1000000000 0 0 7
79 0 0 1000000000 0 0 7
80 0 0 1000000000 0 0 10
81 0 0 1000000000 0 5 0
82 0 0 1000000000 0 0 10
83 0 0 1000000000 0 0 8
84 0 0 1000000000 0 0 7
85 0 0 1000000000 0 9 0
86 0 0 1000000000 0 0 10
87 0 0 1000000000 0 0 8
88 0 0 1000000000 0 0 9
89 0 0 1000000000 0 8 0
90 0 0 1000000000 0 0 7
91 0 0 1000000000 0 0 10
92 0 0 1000000000 0 0 7
93 0 0 1000000000 0 9 0
94 0 0 1000000000 0 0 6
95 0 0 1000000000 0 0 5
96 0 0 1000000000 0 0 8
97 0 0 1000000000 0 8 0
98 0 0 1000000000 0 0 6
99 0 0 1000000000 0 0 7
100 0 0 1000000000 0 0 10
101 0 0 1000000000 0 6 0
102 0 0 1000000000 0 0 9
103 0 0 1000000000 0 0 5
104 0 0 1000000000 0 0 9
105 0 0 1000000000 0 9 0
106 0 0 1000000000 0 0 5
107 0 0 1000000000 0 0 10
108 0 0 1000000000 0 0 5
109 0 0 1000000000 0 6 0
110 0 0 1000000000 0 0 10
111 0 0 1000000000 0 0 7
112 0 0 1000000000 0 0 10
113 0 0 1000000000 0 8 0
114 0 0 1000000000 0 0 8
115 0 0 1000000000 0 0 5
116 0 0 1000000000 0 0 8
117 0 0 1000000000 0 7 0
118 0 0 1000000000 0 0 6
119 0 0 1000000000 0 0 9
120 0 0 1000000000 0 0 9
121 0 0 1000000000 0 7 0
122 0 0 1000000000 0 0 7
123 0 0 1000000000 0 0 10
124 0 0 1000000000 0 0 9
125 0 0 1000000000 0 8 0
126 0 0 1000000000 0 0 9
127 0 0 1000000000 0 0 8
128 0 0 1000000000 0 0 7
129 0 0 1000000000 0 8 0
130 0 0 1000000000 0 0 7
131 0 0 1000000000 0 0 7
132 0 0 1000000000 0 0 5
133 0 0 1000000000 0 7 0
134 0 0 1000000000 0 0 5
135 0 0 1000000000 0 0 5
136 0 0 1000000000 0 0 9
137 0 0 1000000000 0 7 0
138 0 0 1000000000 0 0 5
139 0 0 1000000000 0 0 5
140 0 0 1000000000 0 0 9
141 0 0 1000000000 0 10 0
142 0 0 1000000000 0 0 10
143 0 0 1000000000 0 0 5
144 0 0 1000000000 0 0 7
145 0 0 1000000000 0 5 0
146 0 0 1000000000 0 0 6
147 0 0 1000000000 0 0 5
148 0 0 1000000000 0 0 7
149 0 0 1000000000 0 6 0
150 0 0 1000000000 0 0 7
151 0 0 1000000000 0 0 7
152 0 0 1000000000 0 0 9
153 0 0 1000000000 0 6 0
154 0 0 1000000000 0 0 10
155 0 0 1000000000 0 0 7
156 0 0 1000000000 0 0 10
157 0 0 1000000000 0 7 0
158 0 0 1000000000 0 0 7
159 0 0 1000000000 0 0 7
160 0 0 1000000000 0 0 5
161 0 0 1000000000 0 6 0
162 0 0 1000000000 0 0 6
163 0 0 1000000000 0 0 9
164 0 0 1000000000 0 0 9
165 0 0 1000000000 0 6 0
166 0 0 1000000000 0 0 10
167 0 0 1000000000 0 0 9
